NAME /Users/henri/Research/solvers/instances/idol-instances/robust/collection/cbp_Subramanyam_et_al_2020/CapBud_N20_0/models/uncertain_technology_matrix/
ROWS
 N  OBJ
 L  capacity
 L  c_2145
 L  c_2146
 L  c_2147
 L  c_2148
 L  c_2149
 L  c_2150
 L  c_2151
 L  c_2152
 L  c_2153
 L  c_2154
 L  c_2155
 L  c_2156
 L  c_2157
 L  c_2158
 L  c_2159
 L  c_2160
 L  c_2161
 L  c_2162
 L  c_2163
 L  c_2164
COLUMNS
    MARKER    'MARKER'                 'INTORG'
    x_0        OBJ        -5.58294
    x_0        c_2145     1
    x_0        capacity   1.11659
    x_1        OBJ        -1.81017
    x_1        c_2146     1
    x_1        capacity   0.362033
    x_2        OBJ        -4.5082
    x_2        c_2147     1
    x_2        capacity   0.90164
    x_3        OBJ        -5.08424
    x_3        c_2148     1
    x_3        capacity   1.01685
    x_4        OBJ        -7.77945
    x_4        c_2149     1
    x_4        capacity   1.55589
    x_5        OBJ        -5.82569
    x_5        c_2150     1
    x_5        capacity   1.16514
    x_6        OBJ        -3.77177
    x_6        c_2151     1
    x_6        capacity   0.754354
    x_7        OBJ        -9.494
    x_7        c_2152     1
    x_7        capacity   1.8988
    x_8        OBJ        -5.0258
    x_8        c_2153     1
    x_8        capacity   1.00516
    x_9        OBJ        -8.61552
    x_9        c_2154     1
    x_9        capacity   1.7231
    x_10       OBJ        -4.41672
    x_10       c_2155     1
    x_10       capacity   0.883344
    x_11       OBJ        -0.149624
    x_11       c_2156     1
    x_11       capacity   0.0299249
    x_12       OBJ        -6.02133
    x_12       c_2157     1
    x_12       capacity   1.20427
    x_13       OBJ        -8.02426
    x_13       c_2158     1
    x_13       capacity   1.60485
    x_14       OBJ        -2.83848
    x_14       c_2159     1
    x_14       capacity   0.567696
    x_15       OBJ        -7.06345
    x_15       c_2160     1
    x_15       capacity   1.41269
    x_16       OBJ        -4.63461
    x_16       c_2161     1
    x_16       capacity   0.926922
    x_17       OBJ        -3.54032
    x_17       c_2162     1
    x_17       capacity   0.708063
    x_18       OBJ        -0.601238
    x_18       c_2163     1
    x_18       capacity   0.120248
    x_19       OBJ        -3.55664
    x_19       c_2164     1
    x_19       capacity   0.711327
    y_0        OBJ        -4.46635
    y_0        c_2145     1
    y_0        capacity   1.11659
    y_1        OBJ        -1.44813
    y_1        c_2146     1
    y_1        capacity   0.362033
    y_2        OBJ        -3.60656
    y_2        c_2147     1
    y_2        capacity   0.90164
    y_3        OBJ        -4.0674
    y_3        c_2148     1
    y_3        capacity   1.01685
    y_4        OBJ        -6.22356
    y_4        c_2149     1
    y_4        capacity   1.55589
    y_5        OBJ        -4.66055
    y_5        c_2150     1
    y_5        capacity   1.16514
    y_6        OBJ        -3.01742
    y_6        c_2151     1
    y_6        capacity   0.754354
    y_7        OBJ        -7.5952
    y_7        c_2152     1
    y_7        capacity   1.8988
    y_8        OBJ        -4.02064
    y_8        c_2153     1
    y_8        capacity   1.00516
    y_9        OBJ        -6.89242
    y_9        c_2154     1
    y_9        capacity   1.7231
    y_10       OBJ        -3.53338
    y_10       c_2155     1
    y_10       capacity   0.883344
    y_11       OBJ        -0.119699
    y_11       c_2156     1
    y_11       capacity   0.0299249
    y_12       OBJ        -4.81706
    y_12       c_2157     1
    y_12       capacity   1.20427
    y_13       OBJ        -6.41941
    y_13       c_2158     1
    y_13       capacity   1.60485
    y_14       OBJ        -2.27078
    y_14       c_2159     1
    y_14       capacity   0.567696
    y_15       OBJ        -5.65076
    y_15       c_2160     1
    y_15       capacity   1.41269
    y_16       OBJ        -3.70769
    y_16       c_2161     1
    y_16       capacity   0.926922
    y_17       OBJ        -2.83225
    y_17       c_2162     1
    y_17       capacity   0.708063
    y_18       OBJ        -0.48099
    y_18       c_2163     1
    y_18       capacity   0.120248
    y_19       OBJ        -2.84531
    y_19       c_2164     1
    y_19       capacity   0.711327
    MARKER    'MARKER'                 'INTEND'
RHS
    RHS       capacity   49.1722
    RHS       c_2145     1
    RHS       c_2146     1
    RHS       c_2147     1
    RHS       c_2148     1
    RHS       c_2149     1
    RHS       c_2150     1
    RHS       c_2151     1
    RHS       c_2152     1
    RHS       c_2153     1
    RHS       c_2154     1
    RHS       c_2155     1
    RHS       c_2156     1
    RHS       c_2157     1
    RHS       c_2158     1
    RHS       c_2159     1
    RHS       c_2160     1
    RHS       c_2161     1
    RHS       c_2162     1
    RHS       c_2163     1
    RHS       c_2164     1
BOUNDS
 LI BND       x_0        0
 UI BND       x_0        1
 LI BND       x_1        0
 UI BND       x_1        1
 LI BND       x_2        0
 UI BND       x_2        1
 LI BND       x_3        0
 UI BND       x_3        1
 LI BND       x_4        0
 UI BND       x_4        1
 LI BND       x_5        0
 UI BND       x_5        1
 LI BND       x_6        0
 UI BND       x_6        1
 LI BND       x_7        0
 UI BND       x_7        1
 LI BND       x_8        0
 UI BND       x_8        1
 LI BND       x_9        0
 UI BND       x_9        1
 LI BND       x_10       0
 UI BND       x_10       1
 LI BND       x_11       0
 UI BND       x_11       1
 LI BND       x_12       0
 UI BND       x_12       1
 LI BND       x_13       0
 UI BND       x_13       1
 LI BND       x_14       0
 UI BND       x_14       1
 LI BND       x_15       0
 UI BND       x_15       1
 LI BND       x_16       0
 UI BND       x_16       1
 LI BND       x_17       0
 UI BND       x_17       1
 LI BND       x_18       0
 UI BND       x_18       1
 LI BND       x_19       0
 UI BND       x_19       1
 LI BND       y_0        0
 UI BND       y_0        1
 LI BND       y_1        0
 UI BND       y_1        1
 LI BND       y_2        0
 UI BND       y_2        1
 LI BND       y_3        0
 UI BND       y_3        1
 LI BND       y_4        0
 UI BND       y_4        1
 LI BND       y_5        0
 UI BND       y_5        1
 LI BND       y_6        0
 UI BND       y_6        1
 LI BND       y_7        0
 UI BND       y_7        1
 LI BND       y_8        0
 UI BND       y_8        1
 LI BND       y_9        0
 UI BND       y_9        1
 LI BND       y_10       0
 UI BND       y_10       1
 LI BND       y_11       0
 UI BND       y_11       1
 LI BND       y_12       0
 UI BND       y_12       1
 LI BND       y_13       0
 UI BND       y_13       1
 LI BND       y_14       0
 UI BND       y_14       1
 LI BND       y_15       0
 UI BND       y_15       1
 LI BND       y_16       0
 UI BND       y_16       1
 LI BND       y_17       0
 UI BND       y_17       1
 LI BND       y_18       0
 UI BND       y_18       1
 LI BND       y_19       0
 UI BND       y_19       1
ENDATA
